language ESSENCE' 1.0
$ loaded file: carseqdata/csplib-instance-69
letting numcars=200
letting numclasses=27
letting numoptions=5
letting optMax=[1, 2, 1, 2, 1]
letting windowSize=[2, 3, 3, 5, 5]
letting numberPerClass=[2, 7, 20, 2, 6, 22, 13, 12, 1, 1, 37, 8, 13, 6, 8, 6, 2, 3, 4, 2, 1, 1, 7, 3, 4, 4, 5]
letting optionsRequired=[[1, 1, 1, 0, 1], [1, 1, 0, 1, 0], [1, 1, 0, 0, 0], [0, 1, 1, 0, 1], [1, 1, 1, 0, 0], [0, 0, 0, 1, 0], [1, 0, 0, 0, 0], [0, 1, 0, 1, 0], [1, 0, 1, 1, 1], [1, 1, 1, 1, 0], [0, 1, 0, 0, 0], [1, 0, 0, 1, 0], [0, 0, 1, 0, 0], [0, 1, 0, 0, 1], [0, 1, 1, 0, 0], [1, 0, 1, 0, 0], [1, 1, 0, 0, 1], [0, 0, 0, 1, 1], [1, 0, 1, 1, 0], [0, 1, 1, 1, 0], [0, 0, 1, 1, 1], [1, 1, 0, 1, 1], [1, 0, 0, 0, 1], [0, 0, 0, 0, 1], [0, 0, 0, 0, 0], [0, 0, 1, 0, 0], [0, 0, 1, 0, 0]]
